765.96 0
0 7 14 59 11 66 65 38 0
0 46 8 35 53 19 54 13 57 15 5 0
0 26 12 72 58 10 31 55 25 9 39 0
0 29 48 47 36 37 20 70 60 71 69 61 21 0
0 75 4 45 27 52 34 67 0
0 17 40 32 50 18 24 49 3 44 0
0 68 2 30 74 28 62 73 33 6 0
0 51 16 63 23 56 41 43 42 64 22 1 0